(define-fun-rec
  v6
  ((x Int) (y Int) (z Int)) Int (ite (<= x 0) z (v6 (- x 1) y z)))
(define-fun-rec
  v4
  ((x Int) (y Int) (z Int)) Int (ite (<= x 0) z (v4 (- x 1) y z)))
(define-fun-rec
  v0
  ((x Int) (y Int) (z Int)) Int (ite (<= x 0) z (v0 (- x 1) y z)))
(define-fun-rec
  u2
  ((x Int) (y Int)) Int (ite (<= x 0) y (* (u2 (- x 1) y) x)))
(define-fun
  v2
  ((x Int)) Int (u2 x 1))
(define-fun
  j6
  ((x Int)) Int x)
(define-fun
  j4
  ((x Int)) Int x)
(define-fun
  j0
  ((x Int)) Int x)
(define-fun
  h8
  ((x Int)) Int x)
(define-fun
  h5
  ((x Int) (y Int)) Int y)
(define-fun
  h3
  () Int (+ 2 (+ 2 2)))
(define-fun
  h10
  ((x Int)) Int x)
(define-fun
  g9
  ((x Int)) Int (div (- x 1) 2))
(define-fun
  g8
  ((x Int)) Int (- 1 (mod x 2)))
(define-fun
  g7
  ((x Int) (y Int)) Int (+ 1 y))
(define-fun
  g6
  ((x Int) (y Int)) Int y)
(define-fun
  g4
  ((x Int) (y Int)) Int y)
(define-fun
  g2
  ((x Int)) Int x)
(define-fun
  g1
  ((x Int) (y Int)) Int (+ 1 y))
(define-fun
  g0
  ((x Int) (y Int)) Int y)
(define-fun
  f9
  ((x Int)) Int (+ x x))
(define-fun-rec
  u9
  ((x Int) (y Int)) Int (ite (<= x 0) y (f9 (u9 (- x 1) y))))
(define-fun
  v9
  ((x Int)) Int (u9 (g9 x) 2))
(define-fun
  f8
  ((x Int)) Int (mod (- 1 (v9 x)) (+ 1 x)))
(define-fun-rec
  u8
  ((x Int) (y Int)) Int (ite (<= x 0) y (f8 (u8 (- x 1) y))))
(define-fun
  v8
  ((x Int)) Int (u8 (g8 x) x))
(define-fun
  f7
  ((x Int)) Int (- (v8 x) 2))
(define-fun-rec
  t7
  ((x Int)) Int (ite (<= (f7 x) 0) x (t7 (+ x 1))))
(define-fun-rec
  u7
  ((x Int)) Int (ite (<= x 0) (t7 0) (t7 (+ (u7 (- x 1)) 1))))
(define-fun
  v7
  ((x Int) (y Int)) Int (u7 (g7 x y)))
(define-fun
  f3
  ((x Int)) Int (* x x))
(define-fun-rec
  u3
  ((x Int) (y Int)) Int (ite (<= x 0) y (f3 (u3 (- x 1) y))))
(define-fun
  v3
  () Int (u3 1 h3))
(define-fun
  f10
  ((x Int)) Int (* (* (* x x) x) x))
(define-fun-rec
  u10
  ((x Int) (y Int)) Int (ite (<= x 0) y (f10 (u10 (- x 1) y))))
(define-fun
  v10
  ((x Int)) Int (u10 2 x))
(define-fun
  f6
  ((x Int) (y Int)) Int (* (+ (v7 x y) 1) (* (v10 x) x)))
(define-fun-rec
  u6
  ((x Int) (y Int) (z Int)) Int
  (ite (<= x 0) y (f6 (u6 (- x 1) y z) (v6 (- x 1) y z))))
(define-fun
  w6
  ((x Int)) Int (u6 2 1 x))
(define-fun-rec
  u5
  ((x Int) (y Int)) Int (ite (<= x 0) y (w6 (u5 (- x 1) y))))
(define-fun
  v5
  ((x Int) (y Int)) Int (u5 1 y))
(define-fun
  f4
  ((x Int) (y Int)) Int (* (v5 x y) x))
(define-fun-rec
  u4
  ((x Int) (y Int) (z Int)) Int
  (ite (<= x 0) y (f4 (u4 (- x 1) y z) (v4 (- x 1) y z))))
(define-fun
  w4
  ((x Int)) Int (u4 2 1 x))
(define-fun
  f1
  ((x Int)) Int (mod (+ 1 (v2 x)) (+ 1 x)))
(define-fun-rec
  t1
  ((x Int)) Int (ite (<= (f1 x) 0) x (t1 (+ x 1))))
(define-fun-rec
  u1
  ((x Int)) Int (ite (<= x 0) (t1 0) (t1 (+ (u1 (- x 1)) 1))))
(define-fun
  v1
  ((x Int) (y Int)) Int (u1 (g1 x y)))
(define-fun
  f0
  ((x Int) (y Int)) Int (+ (* (v1 x y) x) x))
(define-fun-rec
  u0
  ((x Int) (y Int) (z Int)) Int
  (ite (<= x 0) y (f0 (u0 (- x 1) y z) (v0 (- x 1) y z))))
(define-fun
  w0
  ((x Int)) Int (u0 v3 1 x))
(assert-not
  (forall ((c Int)) (or (not (>= c 0)) (= (w0 c) (w4 c)))))
